unsat
(:binary-propagations  23
 :conflicts            1
 :final-checks         1
 :max-generation       1
 :max-memory           25.29
 :memory               21.51
 :mk-bool-var          1381
 :mk-clause            382
 :mk-clause-binary     1755
 :num-allocs           29762078
 :num-checks           1
 :propagations         23
 :quant-instantiations 289
 :restarts             1
 :rlimit-count         331115
 :time                 0.07)
